100 2502
1 3
1 10
1 12
1 16
1 17
1 18
1 19
1 21
1 23
1 24
1 27
1 31
1 32
1 33
1 36
1 40
1 41
1 42
1 44
1 45
1 46
1 48
1 52
1 56
1 57
1 58
1 59
1 60
1 61
1 64
1 66
1 68
1 69
1 70
1 71
1 74
1 77
1 78
1 79
1 80
1 83
1 84
1 86
1 87
1 90
1 93
1 95
1 97
2 4
2 5
2 6
2 7
2 9
2 12
2 13
2 15
2 16
2 18
2 23
2 25
2 26
2 29
2 31
2 34
2 35
2 36
2 37
2 38
2 40
2 44
2 45
2 46
2 54
2 63
2 65
2 68
2 69
2 72
2 75
2 77
2 79
2 81
2 82
2 84
2 85
2 86
2 90
2 96
2 98
3 5
3 6
3 7
3 8
3 9
3 14
3 16
3 19
3 20
3 21
3 25
3 27
3 28
3 29
3 30
3 32
3 35
3 39
3 41
3 47
3 48
3 49
3 50
3 51
3 53
3 54
3 56
3 59
3 60
3 64
3 68
3 72
3 73
3 74
3 75
3 76
3 78
3 79
3 84
3 85
3 90
3 92
3 93
3 98
3 99
4 5
4 6
4 7
4 9
4 10
4 12
4 13
4 16
4 19
4 22
4 24
4 26
4 27
4 28
4 29
4 30
4 31
4 32
4 34
4 40
4 41
4 42
4 45
4 47
4 51
4 53
4 54
4 55
4 56
4 57
4 59
4 61
4 62
4 65
4 66
4 67
4 70
4 71
4 72
4 73
4 74
4 75
4 79
4 80
4 81
4 82
4 83
4 85
4 88
4 89
4 90
4 91
4 92
4 93
4 95
5 8
5 9
5 11
5 12
5 13
5 14
5 16
5 17
5 19
5 20
5 24
5 27
5 28
5 29
5 31
5 32
5 33
5 34
5 35
5 36
5 37
5 40
5 42
5 43
5 44
5 45
5 46
5 47
5 49
5 50
5 52
5 53
5 55
5 58
5 59
5 60
5 63
5 64
5 66
5 67
5 69
5 70
5 72
5 75
5 76
5 78
5 80
5 81
5 84
5 87
5 88
5 89
5 91
5 94
5 96
5 97
5 98
5 100
6 12
6 13
6 14
6 16
6 17
6 18
6 21
6 22
6 27
6 28
6 30
6 32
6 34
6 35
6 36
6 37
6 39
6 41
6 42
6 43
6 44
6 46
6 47
6 49
6 55
6 60
6 61
6 62
6 65
6 69
6 72
6 73
6 74
6 75
6 76
6 78
6 82
6 83
6 84
6 87
6 88
6 90
6 91
6 93
6 94
6 95
6 97
6 98
6 99
7 8
7 9
7 10
7 13
7 17
7 18
7 19
7 21
7 25
7 26
7 30
7 35
7 42
7 43
7 44
7 45
7 48
7 49
7 50
7 51
7 53
7 54
7 56
7 57
7 58
7 59
7 61
7 69
7 71
7 72
7 73
7 76
7 78
7 79
7 80
7 84
7 86
7 87
7 88
7 90
7 92
7 93
7 95
7 98
7 100
8 9
8 12
8 20
8 21
8 25
8 27
8 31
8 32
8 34
8 36
8 37
8 41
8 45
8 47
8 49
8 51
8 53
8 55
8 58
8 59
8 62
8 63
8 64
8 65
8 66
8 68
8 70
8 73
8 75
8 78
8 83
8 88
8 90
8 92
8 93
8 95
8 97
8 99
8 100
9 10
9 11
9 12
9 13
9 15
9 17
9 21
9 22
9 24
9 30
9 31
9 32
9 33
9 35
9 36
9 38
9 43
9 44
9 46
9 48
9 49
9 50
9 51
9 53
9 54
9 56
9 57
9 58
9 59
9 60
9 64
9 65
9 66
9 69
9 74
9 75
9 79
9 80
9 82
9 85
9 87
9 89
9 90
9 91
9 96
9 98
10 11
10 12
10 13
10 16
10 17
10 18
10 19
10 20
10 21
10 23
10 27
10 28
10 29
10 30
10 31
10 33
10 35
10 37
10 39
10 41
10 43
10 44
10 45
10 47
10 48
10 50
10 51
10 52
10 54
10 55
10 60
10 61
10 62
10 63
10 64
10 69
10 70
10 72
10 75
10 76
10 77
10 78
10 79
10 81
10 82
10 84
10 86
10 87
10 90
10 92
10 93
10 94
10 96
10 100
11 12
11 13
11 15
11 16
11 17
11 19
11 21
11 22
11 23
11 26
11 27
11 28
11 31
11 32
11 33
11 37
11 40
11 41
11 46
11 47
11 50
11 51
11 52
11 54
11 55
11 58
11 60
11 64
11 65
11 66
11 68
11 72
11 74
11 76
11 78
11 79
11 82
11 83
11 85
11 86
11 90
11 95
11 98
11 99
12 15
12 16
12 17
12 19
12 20
12 21
12 23
12 24
12 25
12 26
12 30
12 38
12 39
12 40
12 41
12 42
12 43
12 47
12 48
12 49
12 50
12 51
12 53
12 54
12 55
12 56
12 57
12 60
12 61
12 63
12 66
12 67
12 69
12 70
12 72
12 74
12 75
12 77
12 78
12 80
12 81
12 83
12 90
12 93
12 97
12 98
12 99
13 17
13 20
13 22
13 25
13 26
13 28
13 29
13 33
13 34
13 36
13 37
13 40
13 41
13 43
13 44
13 45
13 47
13 51
13 52
13 54
13 55
13 57
13 59
13 60
13 61
13 62
13 63
13 64
13 65
13 67
13 68
13 69
13 70
13 71
13 72
13 73
13 75
13 76
13 77
13 80
13 81
13 82
13 84
13 85
13 87
13 92
13 94
13 96
13 97
13 98
13 99
13 100
14 16
14 17
14 21
14 22
14 23
14 28
14 29
14 30
14 35
14 36
14 37
14 38
14 40
14 41
14 44
14 45
14 48
14 50
14 51
14 52
14 53
14 62
14 63
14 64
14 65
14 66
14 69
14 72
14 73
14 74
14 77
14 78
14 79
14 80
14 81
14 82
14 84
14 85
14 87
14 89
14 91
14 92
14 97
14 99
15 16
15 17
15 18
15 19
15 20
15 23
15 25
15 28
15 30
15 33
15 35
15 36
15 39
15 40
15 41
15 45
15 47
15 50
15 52
15 57
15 58
15 59
15 60
15 61
15 64
15 65
15 66
15 67
15 69
15 72
15 73
15 74
15 75
15 76
15 77
15 78
15 81
15 83
15 86
15 87
15 88
15 89
15 92
15 93
15 99
16 19
16 22
16 23
16 26
16 28
16 29
16 30
16 31
16 32
16 34
16 35
16 37
16 38
16 40
16 42
16 44
16 47
16 48
16 50
16 51
16 53
16 54
16 55
16 57
16 58
16 59
16 64
16 65
16 66
16 68
16 72
16 73
16 74
16 77
16 79
16 84
16 85
16 86
16 87
16 88
16 90
16 92
16 93
16 94
16 95
16 96
16 98
16 99
17 18
17 19
17 20
17 22
17 23
17 24
17 26
17 27
17 28
17 31
17 32
17 33
17 36
17 37
17 38
17 39
17 40
17 41
17 42
17 43
17 44
17 50
17 51
17 52
17 53
17 56
17 58
17 59
17 60
17 65
17 70
17 72
17 73
17 74
17 75
17 78
17 79
17 80
17 86
17 87
17 91
17 93
17 94
17 98
18 20
18 22
18 26
18 27
18 28
18 31
18 34
18 36
18 37
18 42
18 43
18 45
18 46
18 47
18 48
18 49
18 50
18 51
18 52
18 54
18 56
18 57
18 58
18 62
18 63
18 66
18 67
18 69
18 70
18 71
18 73
18 74
18 76
18 77
18 79
18 81
18 85
18 92
18 94
18 95
18 96
18 99
18 100
19 21
19 23
19 24
19 25
19 26
19 27
19 28
19 29
19 30
19 31
19 32
19 33
19 36
19 37
19 38
19 39
19 43
19 45
19 47
19 48
19 49
19 53
19 54
19 57
19 58
19 59
19 62
19 64
19 65
19 67
19 73
19 74
19 78
19 79
19 80
19 82
19 83
19 87
19 89
19 90
19 93
19 97
19 100
20 30
20 32
20 34
20 35
20 36
20 37
20 38
20 39
20 40
20 41
20 43
20 45
20 46
20 47
20 48
20 52
20 56
20 58
20 59
20 60
20 61
20 62
20 66
20 68
20 69
20 70
20 71
20 72
20 74
20 84
20 88
20 90
20 92
20 94
20 95
20 98
20 99
21 22
21 30
21 31
21 32
21 33
21 36
21 37
21 41
21 46
21 48
21 50
21 51
21 52
21 53
21 54
21 55
21 56
21 57
21 58
21 60
21 64
21 65
21 67
21 68
21 69
21 70
21 72
21 73
21 74
21 76
21 77
21 79
21 80
21 82
21 86
21 87
21 88
21 89
21 90
21 93
21 95
21 97
21 98
22 24
22 25
22 26
22 29
22 32
22 33
22 34
22 35
22 39
22 43
22 48
22 50
22 51
22 52
22 53
22 54
22 56
22 58
22 60
22 61
22 62
22 63
22 66
22 69
22 70
22 72
22 74
22 75
22 76
22 77
22 79
22 83
22 84
22 86
22 87
22 88
22 90
22 91
22 92
22 93
22 94
22 96
22 98
22 99
22 100
23 24
23 25
23 26
23 27
23 28
23 29
23 32
23 36
23 39
23 40
23 41
23 42
23 44
23 49
23 52
23 53
23 54
23 55
23 58
23 59
23 60
23 62
23 63
23 67
23 69
23 71
23 72
23 74
23 75
23 77
23 83
23 84
23 88
23 89
23 90
23 91
23 94
23 96
23 100
24 25
24 26
24 28
24 29
24 30
24 31
24 33
24 34
24 38
24 44
24 46
24 47
24 50
24 51
24 52
24 53
24 55
24 56
24 58
24 62
24 64
24 65
24 66
24 67
24 69
24 70
24 71
24 72
24 73
24 74
24 78
24 79
24 83
24 84
24 87
24 90
24 91
24 92
24 93
24 95
24 99
24 100
25 30
25 37
25 38
25 42
25 45
25 48
25 49
25 51
25 52
25 53
25 57
25 58
25 62
25 65
25 70
25 73
25 76
25 77
25 79
25 81
25 85
25 88
25 89
25 91
25 92
25 94
25 96
25 97
25 98
25 100
26 27
26 28
26 29
26 30
26 34
26 35
26 37
26 39
26 41
26 42
26 43
26 47
26 49
26 50
26 51
26 52
26 62
26 66
26 67
26 69
26 70
26 73
26 74
26 80
26 81
26 83
26 84
26 85
26 88
26 89
26 92
26 95
26 96
27 28
27 29
27 32
27 33
27 34
27 35
27 37
27 38
27 40
27 41
27 47
27 48
27 49
27 52
27 56
27 58
27 59
27 60
27 61
27 63
27 64
27 65
27 66
27 67
27 69
27 76
27 77
27 81
27 82
27 83
27 84
27 86
27 88
27 89
27 91
27 92
27 93
27 95
27 97
27 98
27 99
27 100
28 29
28 31
28 32
28 34
28 42
28 43
28 44
28 45
28 46
28 49
28 51
28 53
28 54
28 55
28 57
28 58
28 65
28 66
28 67
28 68
28 72
28 73
28 76
28 77
28 78
28 80
28 81
28 82
28 83
28 84
28 85
28 93
28 96
28 97
28 98
28 99
28 100
29 30
29 33
29 34
29 35
29 36
29 39
29 40
29 43
29 45
29 46
29 50
29 52
29 53
29 59
29 60
29 61
29 62
29 65
29 66
29 67
29 68
29 70
29 72
29 74
29 75
29 76
29 77
29 81
29 82
29 84
29 87
29 93
29 95
29 100
30 35
30 36
30 37
30 39
30 40
30 41
30 42
30 43
30 45
30 49
30 50
30 55
30 57
30 58
30 60
30 61
30 62
30 63
30 64
30 69
30 70
30 71
30 73
30 78
30 79
30 82
30 83
30 84
30 88
30 89
30 90
30 91
30 94
30 96
30 97
30 100
31 33
31 36
31 38
31 40
31 41
31 43
31 44
31 46
31 48
31 49
31 51
31 54
31 55
31 56
31 60
31 62
31 63
31 64
31 65
31 66
31 67
31 70
31 71
31 72
31 74
31 75
31 76
31 78
31 79
31 82
31 83
31 86
31 87
31 93
31 94
31 97
31 98
31 100
32 33
32 34
32 35
32 36
32 37
32 38
32 39
32 41
32 44
32 47
32 48
32 49
32 51
32 52
32 57
32 58
32 61
32 63
32 64
32 65
32 67
32 68
32 70
32 71
32 72
32 73
32 77
32 79
32 80
32 81
32 83
32 84
32 85
32 86
32 89
32 92
32 93
32 94
32 95
32 96
32 97
32 98
32 99
32 100
33 39
33 40
33 41
33 44
33 45
33 46
33 47
33 48
33 50
33 51
33 53
33 55
33 56
33 57
33 59
33 60
33 61
33 62
33 65
33 66
33 67
33 69
33 72
33 73
33 77
33 81
33 82
33 83
33 87
33 88
33 90
33 93
33 94
33 95
33 97
34 37
34 38
34 42
34 43
34 45
34 47
34 49
34 52
34 53
34 54
34 55
34 58
34 60
34 61
34 63
34 64
34 65
34 66
34 67
34 69
34 73
34 75
34 76
34 78
34 80
34 85
34 87
34 88
34 89
34 90
34 92
34 94
34 95
34 96
34 98
34 99
35 36
35 37
35 38
35 40
35 41
35 42
35 43
35 44
35 48
35 49
35 51
35 52
35 54
35 56
35 57
35 60
35 64
35 65
35 70
35 75
35 77
35 78
35 80
35 81
35 82
35 83
35 84
35 85
35 86
35 88
35 89
35 90
35 93
35 95
35 97
35 98
35 99
35 100
36 40
36 42
36 44
36 46
36 48
36 49
36 52
36 56
36 59
36 60
36 64
36 67
36 68
36 69
36 71
36 74
36 77
36 82
36 84
36 85
36 86
36 90
36 91
36 92
36 93
36 95
36 99
37 38
37 41
37 46
37 52
37 57
37 58
37 62
37 63
37 65
37 66
37 67
37 68
37 69
37 71
37 73
37 77
37 78
37 81
37 83
37 84
37 86
37 87
37 91
37 94
37 95
37 96
37 97
37 98
37 99
37 100
38 39
38 40
38 42
38 43
38 48
38 49
38 50
38 51
38 52
38 55
38 56
38 58
38 60
38 61
38 62
38 71
38 74
38 75
38 81
38 83
38 86
38 87
38 88
38 89
38 91
38 97
38 98
38 99
39 40
39 44
39 45
39 46
39 48
39 49
39 51
39 52
39 53
39 54
39 55
39 58
39 59
39 60
39 61
39 65
39 66
39 71
39 72
39 74
39 75
39 77
39 78
39 80
39 90
39 92
39 93
39 94
39 97
39 98
40 41
40 44
40 46
40 48
40 49
40 52
40 53
40 54
40 56
40 57
40 61
40 62
40 64
40 65
40 66
40 67
40 69
40 70
40 71
40 74
40 79
40 80
40 81
40 86
40 87
40 89
40 91
40 93
40 94
40 95
40 99
41 42
41 45
41 46
41 53
41 54
41 55
41 56
41 57
41 59
41 60
41 61
41 64
41 65
41 67
41 68
41 69
41 70
41 72
41 73
41 74
41 75
41 77
41 80
41 82
41 83
41 84
41 85
41 86
41 91
41 94
41 95
41 96
41 97
41 98
41 100
42 43
42 44
42 48
42 49
42 50
42 51
42 55
42 61
42 62
42 63
42 65
42 67
42 69
42 70
42 71
42 72
42 73
42 76
42 77
42 78
42 79
42 80
42 81
42 83
42 86
42 88
42 90
42 91
42 94
42 95
42 98
43 44
43 45
43 48
43 50
43 51
43 53
43 54
43 55
43 59
43 60
43 61
43 66
43 70
43 71
43 72
43 73
43 76
43 77
43 79
43 80
43 82
43 84
43 87
43 88
43 89
43 90
43 92
43 94
43 95
43 96
43 99
44 48
44 49
44 50
44 55
44 56
44 57
44 58
44 61
44 63
44 65
44 67
44 68
44 70
44 71
44 73
44 78
44 80
44 82
44 85
44 86
44 89
44 90
44 91
44 93
44 95
44 99
44 100
45 47
45 49
45 50
45 55
45 59
45 60
45 62
45 63
45 65
45 66
45 71
45 74
45 76
45 80
45 82
45 83
45 89
45 91
45 92
45 93
45 94
45 95
45 96
45 99
46 50
46 51
46 54
46 55
46 57
46 59
46 60
46 63
46 65
46 66
46 67
46 71
46 72
46 73
46 74
46 75
46 77
46 78
46 79
46 80
46 83
46 84
46 86
46 89
46 91
46 93
46 94
46 95
46 96
46 100
47 49
47 50
47 52
47 53
47 54
47 56
47 57
47 58
47 60
47 61
47 63
47 64
47 67
47 69
47 70
47 74
47 79
47 81
47 83
47 84
47 86
47 87
47 89
47 91
47 92
47 94
47 97
47 100
48 50
48 51
48 52
48 53
48 54
48 55
48 56
48 58
48 64
48 66
48 78
48 79
48 81
48 82
48 83
48 85
48 86
48 87
48 89
48 90
48 91
48 93
48 94
48 96
48 99
48 100
49 50
49 52
49 53
49 54
49 55
49 60
49 61
49 66
49 67
49 70
49 71
49 75
49 76
49 77
49 82
49 83
49 84
49 87
49 88
49 89
49 90
49 91
49 93
49 94
49 97
49 100
50 54
50 57
50 59
50 60
50 61
50 63
50 66
50 67
50 71
50 73
50 74
50 75
50 78
50 80
50 89
50 90
50 91
50 93
50 99
51 53
51 55
51 56
51 57
51 61
51 64
51 66
51 67
51 68
51 74
51 75
51 77
51 78
51 80
51 81
51 83
51 84
51 88
51 90
51 91
51 92
51 93
51 94
51 97
51 100
52 53
52 55
52 56
52 57
52 60
52 61
52 62
52 63
52 65
52 67
52 71
52 72
52 73
52 74
52 77
52 79
52 84
52 86
52 88
52 90
52 91
52 97
52 98
53 55
53 63
53 66
53 67
53 70
53 71
53 74
53 75
53 77
53 78
53 80
53 83
53 85
53 88
53 89
53 93
53 94
53 97
53 100
54 56
54 57
54 60
54 62
54 64
54 66
54 68
54 71
54 73
54 78
54 81
54 82
54 87
54 91
54 92
54 94
54 95
54 96
54 98
55 56
55 57
55 58
55 60
55 62
55 63
55 64
55 67
55 68
55 72
55 73
55 74
55 75
55 78
55 79
55 80
55 81
55 82
55 83
55 84
55 85
55 86
55 87
55 88
55 91
55 94
55 98
56 58
56 60
56 61
56 63
56 64
56 66
56 67
56 68
56 69
56 70
56 72
56 75
56 76
56 78
56 80
56 81
56 83
56 84
56 86
56 88
56 89
56 90
56 91
56 93
56 94
56 97
56 100
57 58
57 61
57 63
57 64
57 67
57 70
57 71
57 72
57 74
57 75
57 78
57 82
57 86
57 88
58 59
58 61
58 63
58 66
58 67
58 68
58 71
58 72
58 74
58 78
58 82
58 83
58 84
58 86
58 87
58 88
58 90
58 91
58 92
58 94
58 97
58 99
58 100
59 60
59 65
59 66
59 67
59 71
59 72
59 73
59 76
59 78
59 83
59 88
59 91
59 92
59 95
59 96
59 97
59 98
60 61
60 63
60 68
60 69
60 72
60 73
60 74
60 76
60 77
60 78
60 82
60 84
60 86
60 88
60 89
60 91
60 92
60 93
60 94
60 98
61 62
61 63
61 64
61 68
61 69
61 72
61 73
61 75
61 77
61 78
61 79
61 80
61 82
61 83
61 84
61 85
61 86
61 90
61 93
61 94
61 99
62 65
62 66
62 67
62 68
62 69
62 74
62 75
62 77
62 78
62 79
62 88
62 89
62 91
62 96
62 97
63 65
63 66
63 68
63 69
63 74
63 75
63 76
63 77
63 79
63 80
63 82
63 84
63 85
63 87
63 89
63 92
63 93
63 95
63 97
63 98
63 99
64 70
64 72
64 74
64 75
64 79
64 80
64 81
64 88
64 91
64 92
64 93
64 99
64 100
65 67
65 68
65 69
65 70
65 74
65 75
65 76
65 77
65 78
65 81
65 84
65 86
65 93
65 95
65 96
65 97
65 98
66 73
66 76
66 77
66 79
66 81
66 84
66 86
66 88
66 89
66 93
66 94
66 96
66 99
67 69
67 71
67 72
67 73
67 74
67 75
67 81
67 84
67 87
67 88
67 89
67 91
67 92
67 93
67 94
67 95
67 96
67 98
67 99
67 100
68 71
68 76
68 80
68 81
68 82
68 83
68 85
68 86
68 87
68 91
68 92
68 93
68 96
69 72
69 74
69 78
69 80
69 88
69 89
69 90
69 91
69 93
69 96
69 100
70 72
70 73
70 75
70 78
70 80
70 81
70 84
70 85
70 86
70 87
70 89
70 90
70 91
70 92
70 96
71 74
71 79
71 81
71 82
71 83
71 84
71 87
71 93
71 98
72 73
72 75
72 77
72 89
72 92
72 95
73 74
73 75
73 77
73 78
73 79
73 80
73 82
73 83
73 85
73 87
73 88
73 89
73 90
73 93
73 94
73 97
73 98
74 76
74 77
74 78
74 79
74 80
74 82
74 86
74 87
74 89
74 90
74 91
74 94
74 95
74 97
74 98
74 99
75 77
75 78
75 79
75 89
75 92
75 96
75 98
75 100
76 77
76 78
76 79
76 81
76 87
76 88
76 89
76 90
76 91
76 92
76 93
76 94
76 95
76 97
77 82
77 83
77 84
77 88
77 89
77 91
77 93
77 95
77 96
77 100
78 82
78 90
78 91
78 93
78 94
78 97
78 99
79 81
79 82
79 83
79 85
79 86
79 87
79 89
79 91
79 93
79 97
80 81
80 82
80 83
80 84
80 85
80 86
80 87
80 88
80 89
80 92
80 94
81 82
81 84
81 86
81 90
81 91
81 93
81 94
81 96
81 97
81 99
82 83
82 84
82 85
82 87
82 88
82 89
82 91
82 94
82 95
82 96
82 97
82 99
82 100
83 84
83 85
83 89
83 90
83 91
83 93
83 94
84 85
84 87
84 88
84 89
84 91
84 93
84 94
84 95
84 98
84 99
85 89
85 90
85 92
85 93
85 95
85 96
86 87
86 92
86 93
86 96
86 97
86 98
86 99
86 100
87 88
87 89
87 90
87 91
87 92
87 94
87 95
87 97
87 98
88 89
88 92
88 93
88 97
88 100
89 90
89 92
89 93
89 97
89 98
89 100
90 92
90 93
90 95
90 96
90 99
91 92
91 94
91 97
92 94
92 95
92 98
93 94
93 97
93 98
94 96
94 98
94 100
95 96
95 98
95 99
96 98
96 100
97 100
98 99
99 100
